NAME : local_11
TYPE : ATSP
DIMENSION : 30
EDGE_WEIGHT_TYPE : EXPLICIT
EDGE_WEIGHT_FORMAT : FULL_MATRIX
EDGE_WEIGHT_SECTION
0 10000000 10000000 10000000 563 10000000 730 580 10000000 218 415 10000000 440 627 781 10000000 761 10000000 371 1045 603 10000000 10000000 10000000 10000000 933 10000000 834 10000000 680 
0 0 10000000 10000000 617 10000000 10000000 10000000 10000000 830 781 10000000 984 10000000 10000000 10000000 10000000 10000000 10000000 10000000 10000000 10000000 10000000 10000000 10000000 960 10000000 901 10000000 351 
0 10000000 0 398 10000000 579 10000000 10000000 686 10000000 10000000 790 10000000 10000000 10000000 10000000 10000000 10000000 10000000 10000000 10000000 10000000 10000000 757 675 10000000 547 10000000 10000000 10000000 
0 10000000 398 0 10000000 252 1047 10000000 388 10000000 10000000 655 10000000 10000000 10000000 10000000 10000000 10000000 10000000 10000000 10000000 10000000 852 364 830 1009 776 10000000 10000000 10000000 
0 617 10000000 10000000 0 10000000 600 549 10000000 456 593 10000000 780 761 938 10000000 10000000 10000000 898 10000000 644 10000000 10000000 1171 10000000 513 10000000 959 10000000 343 
0 10000000 579 252 10000000 0 988 10000000 137 10000000 10000000 457 10000000 10000000 939 835 10000000 10000000 10000000 10000000 10000000 840 600 272 796 10000000 803 10000000 971 10000000 
0 10000000 10000000 1080 600 1003 0 209 1020 790 985 10000000 10000000 321 457 10000000 934 10000000 908 863 216 10000000 10000000 703 10000000 415 10000000 10000000 10000000 920 
0 10000000 10000000 10000000 549 10000000 209 0 10000000 673 890 10000000 985 254 485 10000000 799 10000000 728 834 116 10000000 10000000 858 10000000 514 10000000 10000000 10000000 872 
0 10000000 686 388 10000000 137 1001 10000000 0 10000000 10000000 360 10000000 10000000 900 701 10000000 904 10000000 10000000 10000000 709 463 326 790 10000000 831 10000000 840 10000000 
0 830 10000000 10000000 456 10000000 790 673 10000000 0 231 10000000 349 768 992 10000000 977 10000000 576 10000000 718 10000000 10000000 10000000 10000000 907 10000000 673 10000000 482 
0 781 10000000 10000000 593 10000000 985 890 10000000 231 0 10000000 212 974 10000000 10000000 10000000 10000000 732 10000000 931 10000000 10000000 10000000 10000000 10000000 10000000 450 10000000 473 
0 10000000 790 655 10000000 457 10000000 10000000 360 10000000 10000000 0 10000000 10000000 10000000 643 10000000 10000000 10000000 10000000 10000000 449 419 674 570 10000000 689 935 593 10000000 
0 984 10000000 10000000 780 10000000 10000000 985 10000000 349 212 10000000 0 10000000 10000000 10000000 10000000 10000000 665 10000000 10000000 10000000 10000000 10000000 10000000 10000000 10000000 444 1131 685 
0 10000000 10000000 10000000 761 10000000 321 254 10000000 768 974 10000000 10000000 0 258 10000000 617 846 682 581 141 10000000 10000000 835 10000000 724 10000000 10000000 10000000 10000000 
0 10000000 10000000 10000000 938 939 457 485 900 985 10000000 10000000 10000000 258 0 901 657 615 822 424 372 10000000 877 728 10000000 867 10000000 10000000 10000000 10000000 
0 10000000 10000000 10000000 10000000 835 10000000 10000000 701 10000000 10000000 643 10000000 10000000 901 0 10000000 467 10000000 870 10000000 408 244 879 10000000 10000000 10000000 10000000 432 10000000 
0 10000000 10000000 10000000 10000000 10000000 934 799 10000000 977 10000000 10000000 10000000 617 657 10000000 0 888 490 477 725 10000000 10000000 10000000 10000000 10000000 10000000 10000000 10000000 10000000 
0 10000000 10000000 10000000 10000000 10000000 10000000 10000000 904 10000000 10000000 10000000 10000000 846 615 467 899 0 10000000 460 967 852 599 918 10000000 10000000 10000000 10000000 847 10000000 
0 10000000 10000000 10000000 898 10000000 908 728 10000000 576 732 10000000 665 682 822 10000000 490 10000000 0 851 715 10000000 10000000 10000000 10000000 10000000 10000000 10000000 10000000 10000000 
0 10000000 10000000 10000000 10000000 10000000 863 834 10000000 10000000 10000000 10000000 10000000 581 424 870 477 460 851 0 722 10000000 960 10000000 10000000 10000000 10000000 10000000 10000000 10000000 
0 10000000 10000000 10000000 644 10000000 216 116 10000000 718 931 10000000 10000000 141 372 10000000 725 967 715 722 0 10000000 10000000 825 10000000 594 10000000 10000000 10000000 955 
0 10000000 10000000 10000000 10000000 840 10000000 10000000 709 10000000 10000000 449 10000000 10000000 10000000 408 10000000 852 10000000 10000000 10000000 0 368 981 889 10000000 10000000 1201 158 10000000 
0 10000000 10000000 852 10000000 600 10000000 10000000 463 10000000 10000000 419 10000000 10000000 877 244 10000000 599 10000000 960 10000000 368 0 682 984 10000000 10000000 10000000 466 10000000 
0 10000000 757 364 1017 272 703 858 326 10000000 10000000 674 10000000 835 728 879 10000000 918 10000000 10000000 825 981 682 0 10000000 835 10000000 10000000 10000000 10000000 
0 10000000 675 830 10000000 796 10000000 10000000 790 10000000 10000000 570 10000000 10000000 10000000 10000000 10000000 10000000 10000000 10000000 10000000 889 984 10000000 0 10000000 197 783 10000000 10000000 
0 960 10000000 1046 513 10000000 415 514 10000000 907 10000000 10000000 10000000 724 867 10000000 10000000 10000000 10000000 10000000 594 10000000 10000000 835 10000000 0 10000000 10000000 10000000 810 
0 10000000 547 776 10000000 803 10000000 10000000 831 10000000 10000000 689 10000000 10000000 10000000 10000000 10000000 10000000 10000000 10000000 10000000 10000000 10000000 10000000 197 10000000 0 863 10000000 10000000 
0 901 10000000 10000000 959 10000000 10000000 10000000 10000000 673 450 954 444 10000000 10000000 10000000 10000000 10000000 10000000 10000000 10000000 1040 10000000 10000000 783 10000000 863 0 1002 733 
0 10000000 10000000 10000000 10000000 971 10000000 10000000 840 10000000 10000000 593 1422 10000000 10000000 432 10000000 847 10000000 10000000 10000000 158 466 10000000 10000000 10000000 10000000 1243 0 10000000 
0 10000000 10000000 10000000 10000000 10000000 10000000 10000000 10000000 10000000 10000000 10000000 10000000 10000000 10000000 10000000 10000000 10000000 10000000 10000000 10000000 10000000 10000000 10000000 10000000 10000000 10000000 10000000 10000000 0 
EOF